500
750
525
524
524
523
522
521
520
519
519
518
518
517
516
515
514
514
514
513
512
512
512
511
511
511
511
510
509
509
508
508
508
507
507
507
507
505
505
504
504
503
503
503
501
501
499
499
498
498
498
498
497
497
496
496
496
496
495
495
493
493
490
490
489
488
488
487
486
484
483
483
483
483
481
479
478
478
477
477
475
474
474
474
473
473
473
472
472
469
468
466
465
465
465
462
461
461
459
458
457
457
457
457
457
456
454
453
453
452
452
452
452
451
451
451
451
451
450
450
449
449
449
448
448
447
446
446
445
445
444
443
442
440
440
439
436
436
432
430
430
430
429
429
428
427
426
424
423
423
421
420
418
418
418
417
413
412
410
410
410
410
408
408
408
407
406
406
405
404
403
403
401
400
400
398
398
396
396
396
395
394
394
393
393
393
392
392
390
390
387
387
387
386
386
385
385
385
381
380
380
379
379
377
377
376
375
375
373
370
369
365
365
361
360
360
359
358
357
356
356
356
355
355
355
354
354
353
353
353
352
352
352
351
351
350
349
348
347
347
346
345
345
345
344
343
342
341
340
340
340
339
339
338
337
337
336
336
333
333
333
333
332
331
330
330
330
329
328
328
327
326
326
325
325
325
325
323
322
321
321
320
319
318
318
318
318
317
317
317
316
316
314
313
313
312
312
311
311
311
310
310
310
310
309
309
307
306
304
304
303
303
301
300
300
299
298
298
293
292
291
291
291
291
289
286
286
285
284
283
282
282
281
281
280
278
277
277
275
274
273
273
272
271
271
270
270
269
268
268
267
267
266
266
266
265
264
263
262
260
259
257
257
255
255
255
254
254
252
252
251
251
251
251
250
250
249
249
246
246
245
244
244
244
243
242
241
241
240
238
238
237
237
236
236
236
235
235
235
234
234
232
232
231
231
228
227
226
225
225
224
224
223
222
222
222
221
219
216
216
214
211
211
210
209
207
206
205
204
202
202
201
201
201
201
200
199
199
199
199
198
198
197
197
196
196
195
193
192
192
192
192
190
190
188
188
187
186
185
184
182
182
181
180
180
180
178
177
176
176
175
174
174
173
173
173
170
170
170
167
167
166
165
165
164
164
164
163
160
159
159
159
158
158
158
156
156
154
154
153
152
151
